% Auto-generated by scripts/generate_dzn.py
% problem_type   = polyominoes
% instance       = polyominoes_42
% source_json    = instances_json/0_low_blowup/polyominoes_42.json
% blowup         = 0.6730401529636711
% representation = DFA

mode = 0;

size = 6;
tiles = 4;
n_expressions = 4;
Q = 141;
S = 5;
q0 = [1, 1, 1, 1];
F = [{104}, {136}, {62}, {2}];
weights = [2, 8, 1, 6, 4, 9, 7, 7, 4, 6, 1, 7, 6, 8, 5, 5, 9, 6, 4, 5, 7, 10, 6, 10, 6, 8, 10, 10, 10, 8, 8, 1, 1, 5, 10, 1];
d_dfa = array3d(1..4, 1..141, 1..5, [
  % k = 1
    2, 1, 1, 1, 1,
    4, 3, 3, 3, 3,
    125, 5, 5, 5, 5,
    6, 125, 125, 125, 125,
    125, 7, 7, 7, 7,
    8, 125, 125, 125, 125,
    125, 9, 9, 9, 9,
    11, 10, 10, 10, 10,
    125, 12, 12, 12, 12,
    125, 13, 13, 13, 13,
    14, 125, 125, 125, 125,
    16, 15, 15, 15, 15,
    125, 17, 17, 17, 17,
    125, 18, 18, 18, 18,
    19, 125, 125, 125, 125,
    20, 125, 125, 125, 125,
    22, 21, 21, 21, 21,
    24, 23, 23, 23, 23,
    26, 25, 25, 25, 25,
    125, 27, 27, 27, 27,
    28, 125, 125, 125, 125,
    29, 125, 125, 125, 125,
    125, 30, 30, 30, 30,
    31, 125, 125, 125, 125,
    125, 32, 32, 32, 32,
    125, 33, 33, 33, 33,
    125, 34, 34, 34, 34,
    35, 125, 125, 125, 125,
    36, 125, 125, 125, 125,
    125, 37, 37, 37, 37,
    125, 38, 38, 38, 38,
    125, 39, 39, 39, 39,
    125, 40, 40, 40, 40,
    125, 41, 41, 41, 41,
    42, 125, 125, 125, 125,
    125, 43, 43, 43, 43,
    125, 44, 44, 44, 44,
    125, 45, 45, 45, 45,
    125, 46, 46, 46, 46,
    125, 47, 47, 47, 47,
    125, 48, 48, 48, 48,
    125, 49, 49, 49, 49,
    125, 50, 50, 50, 50,
    51, 125, 125, 125, 125,
    125, 52, 52, 52, 52,
    125, 53, 53, 53, 53,
    125, 54, 54, 54, 54,
    125, 55, 55, 55, 55,
    125, 36, 36, 36, 36,
    125, 56, 56, 56, 56,
    57, 125, 125, 125, 125,
    125, 58, 58, 58, 58,
    125, 59, 59, 59, 59,
    125, 60, 60, 60, 60,
    61, 125, 125, 125, 125,
    125, 62, 62, 62, 62,
    125, 63, 63, 63, 63,
    125, 64, 64, 64, 64,
    65, 125, 125, 125, 125,
    66, 125, 125, 125, 125,
    67, 125, 125, 125, 125,
    68, 125, 125, 125, 125,
    125, 69, 69, 69, 69,
    70, 125, 125, 125, 125,
    125, 71, 71, 71, 71,
    72, 125, 125, 125, 125,
    125, 73, 73, 73, 73,
    125, 74, 74, 74, 74,
    125, 75, 75, 75, 75,
    76, 125, 125, 125, 125,
    125, 77, 77, 77, 77,
    125, 78, 78, 78, 78,
    79, 125, 125, 125, 125,
    125, 80, 80, 80, 80,
    125, 81, 81, 81, 81,
    125, 82, 82, 82, 82,
    125, 83, 83, 83, 83,
    125, 84, 84, 84, 84,
    85, 125, 125, 125, 125,
    125, 86, 86, 86, 86,
    125, 87, 87, 87, 87,
    125, 88, 88, 88, 88,
    125, 89, 89, 89, 89,
    125, 90, 90, 90, 90,
    91, 125, 125, 125, 125,
    125, 92, 92, 92, 92,
    93, 125, 125, 125, 125,
    125, 94, 94, 94, 94,
    125, 95, 95, 95, 95,
    125, 67, 67, 67, 67,
    96, 125, 125, 125, 125,
    125, 97, 97, 97, 97,
    98, 125, 125, 125, 125,
    125, 99, 99, 99, 99,
    125, 100, 100, 100, 100,
    101, 125, 125, 125, 125,
    125, 102, 102, 102, 102,
    125, 76, 76, 76, 76,
    125, 101, 101, 101, 101,
    103, 125, 125, 125, 125,
    104, 125, 125, 125, 125,
    105, 125, 125, 125, 125,
    125, 106, 106, 106, 106,
    125, 104, 104, 104, 104,
    125, 107, 107, 107, 107,
    125, 108, 108, 108, 108,
    125, 109, 109, 109, 109,
    125, 110, 110, 110, 110,
    125, 111, 111, 111, 111,
    125, 112, 112, 112, 112,
    125, 113, 113, 113, 113,
    115, 114, 114, 114, 114,
    125, 116, 116, 116, 116,
    125, 117, 117, 117, 117,
    118, 125, 125, 125, 125,
    125, 93, 93, 93, 93,
    119, 125, 125, 125, 125,
    120, 125, 125, 125, 125,
    121, 125, 125, 125, 125,
    125, 122, 122, 122, 122,
    123, 125, 125, 125, 125,
    125, 124, 124, 124, 124,
    125, 120, 120, 120, 120,
    125, 85, 85, 85, 85,
    125, 125, 125, 125, 125,
    0, 0, 0, 0, 0,
    0, 0, 0, 0, 0,
    0, 0, 0, 0, 0,
    0, 0, 0, 0, 0,
    0, 0, 0, 0, 0,
    0, 0, 0, 0, 0,
    0, 0, 0, 0, 0,
    0, 0, 0, 0, 0,
    0, 0, 0, 0, 0,
    0, 0, 0, 0, 0,
    0, 0, 0, 0, 0,
    0, 0, 0, 0, 0,
    0, 0, 0, 0, 0,
    0, 0, 0, 0, 0,
    0, 0, 0, 0, 0,
    0, 0, 0, 0, 0,

  % k = 2
    1, 2, 1, 1, 1,
    3, 4, 3, 3, 3,
    5, 141, 5, 5, 5,
    141, 6, 141, 141, 141,
    7, 141, 7, 7, 7,
    8, 141, 8, 8, 8,
    9, 141, 9, 9, 9,
    10, 141, 10, 10, 10,
    11, 12, 11, 11, 11,
    13, 141, 13, 13, 13,
    14, 141, 14, 14, 14,
    141, 15, 141, 141, 141,
    16, 141, 16, 16, 16,
    141, 17, 141, 141, 141,
    141, 18, 141, 141, 141,
    19, 20, 19, 19, 19,
    21, 22, 21, 21, 21,
    23, 141, 23, 23, 23,
    24, 25, 24, 24, 24,
    26, 27, 26, 26, 26,
    28, 141, 28, 28, 28,
    141, 29, 141, 141, 141,
    30, 141, 30, 30, 30,
    141, 31, 141, 141, 141,
    141, 32, 141, 141, 141,
    33, 141, 33, 33, 33,
    34, 141, 34, 34, 34,
    35, 36, 35, 35, 35,
    37, 141, 37, 37, 37,
    141, 38, 141, 141, 141,
    39, 141, 39, 39, 39,
    40, 141, 40, 40, 40,
    41, 141, 41, 41, 41,
    42, 141, 42, 42, 42,
    43, 141, 43, 43, 43,
    141, 44, 141, 141, 141,
    45, 141, 45, 45, 45,
    141, 46, 141, 141, 141,
    47, 141, 47, 47, 47,
    48, 141, 48, 48, 48,
    49, 141, 49, 49, 49,
    50, 141, 50, 50, 50,
    51, 141, 51, 51, 51,
    141, 52, 141, 141, 141,
    53, 141, 53, 53, 53,
    141, 54, 141, 141, 141,
    55, 141, 55, 55, 55,
    56, 141, 56, 56, 56,
    57, 141, 57, 57, 57,
    58, 141, 58, 58, 58,
    59, 141, 59, 59, 59,
    141, 60, 141, 141, 141,
    61, 141, 61, 61, 61,
    141, 62, 141, 141, 141,
    63, 141, 63, 63, 63,
    64, 141, 64, 64, 64,
    141, 65, 141, 141, 141,
    66, 141, 66, 66, 66,
    141, 67, 141, 141, 141,
    141, 68, 141, 141, 141,
    141, 69, 141, 141, 141,
    141, 70, 141, 141, 141,
    71, 141, 71, 71, 71,
    72, 141, 72, 72, 72,
    141, 73, 141, 141, 141,
    141, 74, 141, 141, 141,
    141, 75, 141, 141, 141,
    76, 141, 76, 76, 76,
    141, 77, 141, 141, 141,
    78, 141, 78, 78, 78,
    79, 141, 79, 79, 79,
    141, 80, 141, 141, 141,
    81, 141, 81, 81, 81,
    141, 82, 141, 141, 141,
    141, 83, 141, 141, 141,
    84, 141, 84, 84, 84,
    141, 85, 141, 141, 141,
    86, 141, 86, 86, 86,
    141, 87, 141, 141, 141,
    141, 88, 141, 141, 141,
    89, 141, 89, 89, 89,
    90, 141, 90, 90, 90,
    141, 91, 141, 141, 141,
    141, 92, 141, 141, 141,
    141, 93, 141, 141, 141,
    141, 94, 141, 141, 141,
    141, 95, 141, 141, 141,
    96, 141, 96, 96, 96,
    97, 141, 97, 97, 97,
    98, 141, 98, 98, 98,
    141, 99, 141, 141, 141,
    141, 100, 141, 141, 141,
    141, 101, 141, 141, 141,
    102, 141, 102, 102, 102,
    103, 141, 103, 103, 103,
    104, 141, 104, 104, 104,
    105, 141, 105, 105, 105,
    106, 141, 106, 106, 106,
    107, 141, 107, 107, 107,
    141, 108, 141, 141, 141,
    109, 141, 109, 109, 109,
    108, 141, 108, 108, 108,
    110, 141, 110, 110, 110,
    111, 141, 111, 111, 111,
    112, 141, 112, 112, 112,
    113, 141, 113, 113, 113,
    114, 141, 114, 114, 114,
    115, 141, 115, 115, 115,
    116, 141, 116, 116, 116,
    117, 141, 117, 117, 117,
    118, 141, 118, 118, 118,
    141, 119, 141, 141, 141,
    119, 141, 119, 119, 119,
    120, 141, 120, 120, 120,
    121, 141, 121, 121, 121,
    122, 141, 122, 122, 122,
    123, 141, 123, 123, 123,
    124, 141, 124, 124, 124,
    141, 125, 141, 141, 141,
    126, 141, 126, 126, 126,
    127, 141, 127, 127, 127,
    70, 141, 70, 70, 70,
    128, 141, 128, 128, 128,
    129, 141, 129, 129, 129,
    130, 141, 130, 130, 130,
    141, 131, 141, 141, 141,
    132, 141, 132, 132, 132,
    141, 133, 141, 141, 141,
    141, 134, 141, 141, 141,
    135, 141, 135, 135, 135,
    141, 86, 141, 141, 141,
    141, 136, 141, 141, 141,
    141, 137, 141, 141, 141,
    137, 141, 137, 137, 137,
    138, 141, 138, 138, 138,
    136, 141, 136, 136, 136,
    125, 141, 125, 125, 125,
    139, 141, 139, 139, 139,
    141, 140, 141, 141, 141,
    141, 132, 141, 141, 141,
    141, 141, 141, 141, 141,

  % k = 3
    1, 1, 2, 1, 1,
    4, 4, 3, 4, 4,
    83, 83, 5, 83, 83,
    6, 6, 83, 6, 6,
    8, 8, 7, 8, 8,
    9, 9, 83, 9, 9,
    11, 11, 10, 11, 11,
    12, 12, 83, 12, 12,
    13, 13, 83, 13, 13,
    14, 14, 83, 14, 14,
    15, 15, 83, 15, 15,
    16, 16, 83, 16, 16,
    18, 18, 17, 18, 18,
    19, 19, 83, 19, 19,
    20, 20, 83, 20, 20,
    21, 21, 83, 21, 21,
    83, 83, 22, 83, 83,
    23, 23, 83, 23, 23,
    25, 25, 24, 25, 25,
    83, 83, 26, 83, 83,
    83, 83, 27, 83, 83,
    83, 83, 28, 83, 83,
    83, 83, 17, 83, 83,
    83, 83, 29, 83, 83,
    83, 83, 24, 83, 83,
    83, 83, 30, 83, 83,
    83, 83, 31, 83, 83,
    32, 32, 83, 32, 32,
    83, 83, 33, 83, 83,
    83, 83, 34, 83, 83,
    83, 83, 35, 83, 83,
    36, 36, 83, 36, 36,
    83, 83, 37, 83, 83,
    83, 83, 38, 83, 83,
    39, 39, 83, 39, 39,
    40, 40, 83, 40, 40,
    41, 41, 83, 41, 41,
    42, 42, 83, 42, 42,
    43, 43, 83, 43, 43,
    44, 44, 83, 44, 44,
    45, 45, 83, 45, 45,
    46, 46, 83, 46, 46,
    47, 47, 83, 47, 47,
    83, 83, 48, 83, 83,
    49, 49, 83, 49, 49,
    50, 50, 49, 50, 50,
    51, 51, 83, 51, 51,
    83, 83, 52, 83, 83,
    83, 83, 53, 83, 83,
    83, 83, 49, 83, 83,
    83, 83, 54, 83, 83,
    83, 83, 55, 83, 83,
    83, 83, 56, 83, 83,
    83, 83, 57, 83, 83,
    58, 58, 83, 58, 58,
    83, 83, 59, 83, 83,
    83, 83, 60, 83, 83,
    61, 61, 83, 61, 61,
    83, 83, 62, 83, 83,
    63, 63, 83, 63, 63,
    64, 64, 83, 64, 64,
    62, 62, 83, 62, 62,
    65, 65, 83, 65, 65,
    66, 66, 83, 66, 66,
    67, 67, 83, 67, 67,
    83, 83, 68, 83, 83,
    69, 69, 83, 69, 69,
    83, 83, 70, 83, 83,
    83, 83, 71, 83, 83,
    83, 83, 72, 83, 83,
    83, 83, 73, 83, 83,
    74, 74, 83, 74, 74,
    83, 83, 75, 83, 83,
    76, 76, 83, 76, 76,
    77, 77, 83, 77, 77,
    78, 78, 83, 78, 78,
    79, 79, 83, 79, 79,
    53, 53, 83, 53, 53,
    80, 80, 83, 80, 80,
    81, 81, 83, 81, 81,
    82, 82, 62, 82, 82,
    59, 59, 83, 59, 59,
    83, 83, 83, 83, 83,
    0, 0, 0, 0, 0,
    0, 0, 0, 0, 0,
    0, 0, 0, 0, 0,
    0, 0, 0, 0, 0,
    0, 0, 0, 0, 0,
    0, 0, 0, 0, 0,
    0, 0, 0, 0, 0,
    0, 0, 0, 0, 0,
    0, 0, 0, 0, 0,
    0, 0, 0, 0, 0,
    0, 0, 0, 0, 0,
    0, 0, 0, 0, 0,
    0, 0, 0, 0, 0,
    0, 0, 0, 0, 0,
    0, 0, 0, 0, 0,
    0, 0, 0, 0, 0,
    0, 0, 0, 0, 0,
    0, 0, 0, 0, 0,
    0, 0, 0, 0, 0,
    0, 0, 0, 0, 0,
    0, 0, 0, 0, 0,
    0, 0, 0, 0, 0,
    0, 0, 0, 0, 0,
    0, 0, 0, 0, 0,
    0, 0, 0, 0, 0,
    0, 0, 0, 0, 0,
    0, 0, 0, 0, 0,
    0, 0, 0, 0, 0,
    0, 0, 0, 0, 0,
    0, 0, 0, 0, 0,
    0, 0, 0, 0, 0,
    0, 0, 0, 0, 0,
    0, 0, 0, 0, 0,
    0, 0, 0, 0, 0,
    0, 0, 0, 0, 0,
    0, 0, 0, 0, 0,
    0, 0, 0, 0, 0,
    0, 0, 0, 0, 0,
    0, 0, 0, 0, 0,
    0, 0, 0, 0, 0,
    0, 0, 0, 0, 0,
    0, 0, 0, 0, 0,
    0, 0, 0, 0, 0,
    0, 0, 0, 0, 0,
    0, 0, 0, 0, 0,
    0, 0, 0, 0, 0,
    0, 0, 0, 0, 0,
    0, 0, 0, 0, 0,
    0, 0, 0, 0, 0,
    0, 0, 0, 0, 0,
    0, 0, 0, 0, 0,
    0, 0, 0, 0, 0,
    0, 0, 0, 0, 0,
    0, 0, 0, 0, 0,
    0, 0, 0, 0, 0,
    0, 0, 0, 0, 0,
    0, 0, 0, 0, 0,
    0, 0, 0, 0, 0,

  % k = 4
    1, 1, 1, 2, 1,
    2, 2, 2, 3, 2,
    3, 3, 3, 3, 3,
    0, 0, 0, 0, 0,
    0, 0, 0, 0, 0,
    0, 0, 0, 0, 0,
    0, 0, 0, 0, 0,
    0, 0, 0, 0, 0,
    0, 0, 0, 0, 0,
    0, 0, 0, 0, 0,
    0, 0, 0, 0, 0,
    0, 0, 0, 0, 0,
    0, 0, 0, 0, 0,
    0, 0, 0, 0, 0,
    0, 0, 0, 0, 0,
    0, 0, 0, 0, 0,
    0, 0, 0, 0, 0,
    0, 0, 0, 0, 0,
    0, 0, 0, 0, 0,
    0, 0, 0, 0, 0,
    0, 0, 0, 0, 0,
    0, 0, 0, 0, 0,
    0, 0, 0, 0, 0,
    0, 0, 0, 0, 0,
    0, 0, 0, 0, 0,
    0, 0, 0, 0, 0,
    0, 0, 0, 0, 0,
    0, 0, 0, 0, 0,
    0, 0, 0, 0, 0,
    0, 0, 0, 0, 0,
    0, 0, 0, 0, 0,
    0, 0, 0, 0, 0,
    0, 0, 0, 0, 0,
    0, 0, 0, 0, 0,
    0, 0, 0, 0, 0,
    0, 0, 0, 0, 0,
    0, 0, 0, 0, 0,
    0, 0, 0, 0, 0,
    0, 0, 0, 0, 0,
    0, 0, 0, 0, 0,
    0, 0, 0, 0, 0,
    0, 0, 0, 0, 0,
    0, 0, 0, 0, 0,
    0, 0, 0, 0, 0,
    0, 0, 0, 0, 0,
    0, 0, 0, 0, 0,
    0, 0, 0, 0, 0,
    0, 0, 0, 0, 0,
    0, 0, 0, 0, 0,
    0, 0, 0, 0, 0,
    0, 0, 0, 0, 0,
    0, 0, 0, 0, 0,
    0, 0, 0, 0, 0,
    0, 0, 0, 0, 0,
    0, 0, 0, 0, 0,
    0, 0, 0, 0, 0,
    0, 0, 0, 0, 0,
    0, 0, 0, 0, 0,
    0, 0, 0, 0, 0,
    0, 0, 0, 0, 0,
    0, 0, 0, 0, 0,
    0, 0, 0, 0, 0,
    0, 0, 0, 0, 0,
    0, 0, 0, 0, 0,
    0, 0, 0, 0, 0,
    0, 0, 0, 0, 0,
    0, 0, 0, 0, 0,
    0, 0, 0, 0, 0,
    0, 0, 0, 0, 0,
    0, 0, 0, 0, 0,
    0, 0, 0, 0, 0,
    0, 0, 0, 0, 0,
    0, 0, 0, 0, 0,
    0, 0, 0, 0, 0,
    0, 0, 0, 0, 0,
    0, 0, 0, 0, 0,
    0, 0, 0, 0, 0,
    0, 0, 0, 0, 0,
    0, 0, 0, 0, 0,
    0, 0, 0, 0, 0,
    0, 0, 0, 0, 0,
    0, 0, 0, 0, 0,
    0, 0, 0, 0, 0,
    0, 0, 0, 0, 0,
    0, 0, 0, 0, 0,
    0, 0, 0, 0, 0,
    0, 0, 0, 0, 0,
    0, 0, 0, 0, 0,
    0, 0, 0, 0, 0,
    0, 0, 0, 0, 0,
    0, 0, 0, 0, 0,
    0, 0, 0, 0, 0,
    0, 0, 0, 0, 0,
    0, 0, 0, 0, 0,
    0, 0, 0, 0, 0,
    0, 0, 0, 0, 0,
    0, 0, 0, 0, 0,
    0, 0, 0, 0, 0,
    0, 0, 0, 0, 0,
    0, 0, 0, 0, 0,
    0, 0, 0, 0, 0,
    0, 0, 0, 0, 0,
    0, 0, 0, 0, 0,
    0, 0, 0, 0, 0,
    0, 0, 0, 0, 0,
    0, 0, 0, 0, 0,
    0, 0, 0, 0, 0,
    0, 0, 0, 0, 0,
    0, 0, 0, 0, 0,
    0, 0, 0, 0, 0,
    0, 0, 0, 0, 0,
    0, 0, 0, 0, 0,
    0, 0, 0, 0, 0,
    0, 0, 0, 0, 0,
    0, 0, 0, 0, 0,
    0, 0, 0, 0, 0,
    0, 0, 0, 0, 0,
    0, 0, 0, 0, 0,
    0, 0, 0, 0, 0,
    0, 0, 0, 0, 0,
    0, 0, 0, 0, 0,
    0, 0, 0, 0, 0,
    0, 0, 0, 0, 0,
    0, 0, 0, 0, 0,
    0, 0, 0, 0, 0,
    0, 0, 0, 0, 0,
    0, 0, 0, 0, 0,
    0, 0, 0, 0, 0,
    0, 0, 0, 0, 0,
    0, 0, 0, 0, 0,
    0, 0, 0, 0, 0,
    0, 0, 0, 0, 0,
    0, 0, 0, 0, 0,
    0, 0, 0, 0, 0,
    0, 0, 0, 0, 0,
    0, 0, 0, 0, 0,
    0, 0, 0, 0, 0,
    0, 0, 0, 0, 0,
    0, 0, 0, 0, 0,
    0, 0, 0, 0, 0,
    0, 0, 0, 0, 0
]);
d_nfa = array3d(1..4, 1..141, 1..5, [
  % k = 1
    {}, {}, {}, {}, {},
    {}, {}, {}, {}, {},
    {}, {}, {}, {}, {},
    {}, {}, {}, {}, {},
    {}, {}, {}, {}, {},
    {}, {}, {}, {}, {},
    {}, {}, {}, {}, {},
    {}, {}, {}, {}, {},
    {}, {}, {}, {}, {},
    {}, {}, {}, {}, {},
    {}, {}, {}, {}, {},
    {}, {}, {}, {}, {},
    {}, {}, {}, {}, {},
    {}, {}, {}, {}, {},
    {}, {}, {}, {}, {},
    {}, {}, {}, {}, {},
    {}, {}, {}, {}, {},
    {}, {}, {}, {}, {},
    {}, {}, {}, {}, {},
    {}, {}, {}, {}, {},
    {}, {}, {}, {}, {},
    {}, {}, {}, {}, {},
    {}, {}, {}, {}, {},
    {}, {}, {}, {}, {},
    {}, {}, {}, {}, {},
    {}, {}, {}, {}, {},
    {}, {}, {}, {}, {},
    {}, {}, {}, {}, {},
    {}, {}, {}, {}, {},
    {}, {}, {}, {}, {},
    {}, {}, {}, {}, {},
    {}, {}, {}, {}, {},
    {}, {}, {}, {}, {},
    {}, {}, {}, {}, {},
    {}, {}, {}, {}, {},
    {}, {}, {}, {}, {},
    {}, {}, {}, {}, {},
    {}, {}, {}, {}, {},
    {}, {}, {}, {}, {},
    {}, {}, {}, {}, {},
    {}, {}, {}, {}, {},
    {}, {}, {}, {}, {},
    {}, {}, {}, {}, {},
    {}, {}, {}, {}, {},
    {}, {}, {}, {}, {},
    {}, {}, {}, {}, {},
    {}, {}, {}, {}, {},
    {}, {}, {}, {}, {},
    {}, {}, {}, {}, {},
    {}, {}, {}, {}, {},
    {}, {}, {}, {}, {},
    {}, {}, {}, {}, {},
    {}, {}, {}, {}, {},
    {}, {}, {}, {}, {},
    {}, {}, {}, {}, {},
    {}, {}, {}, {}, {},
    {}, {}, {}, {}, {},
    {}, {}, {}, {}, {},
    {}, {}, {}, {}, {},
    {}, {}, {}, {}, {},
    {}, {}, {}, {}, {},
    {}, {}, {}, {}, {},
    {}, {}, {}, {}, {},
    {}, {}, {}, {}, {},
    {}, {}, {}, {}, {},
    {}, {}, {}, {}, {},
    {}, {}, {}, {}, {},
    {}, {}, {}, {}, {},
    {}, {}, {}, {}, {},
    {}, {}, {}, {}, {},
    {}, {}, {}, {}, {},
    {}, {}, {}, {}, {},
    {}, {}, {}, {}, {},
    {}, {}, {}, {}, {},
    {}, {}, {}, {}, {},
    {}, {}, {}, {}, {},
    {}, {}, {}, {}, {},
    {}, {}, {}, {}, {},
    {}, {}, {}, {}, {},
    {}, {}, {}, {}, {},
    {}, {}, {}, {}, {},
    {}, {}, {}, {}, {},
    {}, {}, {}, {}, {},
    {}, {}, {}, {}, {},
    {}, {}, {}, {}, {},
    {}, {}, {}, {}, {},
    {}, {}, {}, {}, {},
    {}, {}, {}, {}, {},
    {}, {}, {}, {}, {},
    {}, {}, {}, {}, {},
    {}, {}, {}, {}, {},
    {}, {}, {}, {}, {},
    {}, {}, {}, {}, {},
    {}, {}, {}, {}, {},
    {}, {}, {}, {}, {},
    {}, {}, {}, {}, {},
    {}, {}, {}, {}, {},
    {}, {}, {}, {}, {},
    {}, {}, {}, {}, {},
    {}, {}, {}, {}, {},
    {}, {}, {}, {}, {},
    {}, {}, {}, {}, {},
    {}, {}, {}, {}, {},
    {}, {}, {}, {}, {},
    {}, {}, {}, {}, {},
    {}, {}, {}, {}, {},
    {}, {}, {}, {}, {},
    {}, {}, {}, {}, {},
    {}, {}, {}, {}, {},
    {}, {}, {}, {}, {},
    {}, {}, {}, {}, {},
    {}, {}, {}, {}, {},
    {}, {}, {}, {}, {},
    {}, {}, {}, {}, {},
    {}, {}, {}, {}, {},
    {}, {}, {}, {}, {},
    {}, {}, {}, {}, {},
    {}, {}, {}, {}, {},
    {}, {}, {}, {}, {},
    {}, {}, {}, {}, {},
    {}, {}, {}, {}, {},
    {}, {}, {}, {}, {},
    {}, {}, {}, {}, {},
    {}, {}, {}, {}, {},
    {}, {}, {}, {}, {},
    {}, {}, {}, {}, {},
    {}, {}, {}, {}, {},
    {}, {}, {}, {}, {},
    {}, {}, {}, {}, {},
    {}, {}, {}, {}, {},
    {}, {}, {}, {}, {},
    {}, {}, {}, {}, {},
    {}, {}, {}, {}, {},
    {}, {}, {}, {}, {},
    {}, {}, {}, {}, {},
    {}, {}, {}, {}, {},
    {}, {}, {}, {}, {},
    {}, {}, {}, {}, {},
    {}, {}, {}, {}, {},
    {}, {}, {}, {}, {},
    {}, {}, {}, {}, {},

  % k = 2
    {}, {}, {}, {}, {},
    {}, {}, {}, {}, {},
    {}, {}, {}, {}, {},
    {}, {}, {}, {}, {},
    {}, {}, {}, {}, {},
    {}, {}, {}, {}, {},
    {}, {}, {}, {}, {},
    {}, {}, {}, {}, {},
    {}, {}, {}, {}, {},
    {}, {}, {}, {}, {},
    {}, {}, {}, {}, {},
    {}, {}, {}, {}, {},
    {}, {}, {}, {}, {},
    {}, {}, {}, {}, {},
    {}, {}, {}, {}, {},
    {}, {}, {}, {}, {},
    {}, {}, {}, {}, {},
    {}, {}, {}, {}, {},
    {}, {}, {}, {}, {},
    {}, {}, {}, {}, {},
    {}, {}, {}, {}, {},
    {}, {}, {}, {}, {},
    {}, {}, {}, {}, {},
    {}, {}, {}, {}, {},
    {}, {}, {}, {}, {},
    {}, {}, {}, {}, {},
    {}, {}, {}, {}, {},
    {}, {}, {}, {}, {},
    {}, {}, {}, {}, {},
    {}, {}, {}, {}, {},
    {}, {}, {}, {}, {},
    {}, {}, {}, {}, {},
    {}, {}, {}, {}, {},
    {}, {}, {}, {}, {},
    {}, {}, {}, {}, {},
    {}, {}, {}, {}, {},
    {}, {}, {}, {}, {},
    {}, {}, {}, {}, {},
    {}, {}, {}, {}, {},
    {}, {}, {}, {}, {},
    {}, {}, {}, {}, {},
    {}, {}, {}, {}, {},
    {}, {}, {}, {}, {},
    {}, {}, {}, {}, {},
    {}, {}, {}, {}, {},
    {}, {}, {}, {}, {},
    {}, {}, {}, {}, {},
    {}, {}, {}, {}, {},
    {}, {}, {}, {}, {},
    {}, {}, {}, {}, {},
    {}, {}, {}, {}, {},
    {}, {}, {}, {}, {},
    {}, {}, {}, {}, {},
    {}, {}, {}, {}, {},
    {}, {}, {}, {}, {},
    {}, {}, {}, {}, {},
    {}, {}, {}, {}, {},
    {}, {}, {}, {}, {},
    {}, {}, {}, {}, {},
    {}, {}, {}, {}, {},
    {}, {}, {}, {}, {},
    {}, {}, {}, {}, {},
    {}, {}, {}, {}, {},
    {}, {}, {}, {}, {},
    {}, {}, {}, {}, {},
    {}, {}, {}, {}, {},
    {}, {}, {}, {}, {},
    {}, {}, {}, {}, {},
    {}, {}, {}, {}, {},
    {}, {}, {}, {}, {},
    {}, {}, {}, {}, {},
    {}, {}, {}, {}, {},
    {}, {}, {}, {}, {},
    {}, {}, {}, {}, {},
    {}, {}, {}, {}, {},
    {}, {}, {}, {}, {},
    {}, {}, {}, {}, {},
    {}, {}, {}, {}, {},
    {}, {}, {}, {}, {},
    {}, {}, {}, {}, {},
    {}, {}, {}, {}, {},
    {}, {}, {}, {}, {},
    {}, {}, {}, {}, {},
    {}, {}, {}, {}, {},
    {}, {}, {}, {}, {},
    {}, {}, {}, {}, {},
    {}, {}, {}, {}, {},
    {}, {}, {}, {}, {},
    {}, {}, {}, {}, {},
    {}, {}, {}, {}, {},
    {}, {}, {}, {}, {},
    {}, {}, {}, {}, {},
    {}, {}, {}, {}, {},
    {}, {}, {}, {}, {},
    {}, {}, {}, {}, {},
    {}, {}, {}, {}, {},
    {}, {}, {}, {}, {},
    {}, {}, {}, {}, {},
    {}, {}, {}, {}, {},
    {}, {}, {}, {}, {},
    {}, {}, {}, {}, {},
    {}, {}, {}, {}, {},
    {}, {}, {}, {}, {},
    {}, {}, {}, {}, {},
    {}, {}, {}, {}, {},
    {}, {}, {}, {}, {},
    {}, {}, {}, {}, {},
    {}, {}, {}, {}, {},
    {}, {}, {}, {}, {},
    {}, {}, {}, {}, {},
    {}, {}, {}, {}, {},
    {}, {}, {}, {}, {},
    {}, {}, {}, {}, {},
    {}, {}, {}, {}, {},
    {}, {}, {}, {}, {},
    {}, {}, {}, {}, {},
    {}, {}, {}, {}, {},
    {}, {}, {}, {}, {},
    {}, {}, {}, {}, {},
    {}, {}, {}, {}, {},
    {}, {}, {}, {}, {},
    {}, {}, {}, {}, {},
    {}, {}, {}, {}, {},
    {}, {}, {}, {}, {},
    {}, {}, {}, {}, {},
    {}, {}, {}, {}, {},
    {}, {}, {}, {}, {},
    {}, {}, {}, {}, {},
    {}, {}, {}, {}, {},
    {}, {}, {}, {}, {},
    {}, {}, {}, {}, {},
    {}, {}, {}, {}, {},
    {}, {}, {}, {}, {},
    {}, {}, {}, {}, {},
    {}, {}, {}, {}, {},
    {}, {}, {}, {}, {},
    {}, {}, {}, {}, {},
    {}, {}, {}, {}, {},
    {}, {}, {}, {}, {},
    {}, {}, {}, {}, {},
    {}, {}, {}, {}, {},

  % k = 3
    {}, {}, {}, {}, {},
    {}, {}, {}, {}, {},
    {}, {}, {}, {}, {},
    {}, {}, {}, {}, {},
    {}, {}, {}, {}, {},
    {}, {}, {}, {}, {},
    {}, {}, {}, {}, {},
    {}, {}, {}, {}, {},
    {}, {}, {}, {}, {},
    {}, {}, {}, {}, {},
    {}, {}, {}, {}, {},
    {}, {}, {}, {}, {},
    {}, {}, {}, {}, {},
    {}, {}, {}, {}, {},
    {}, {}, {}, {}, {},
    {}, {}, {}, {}, {},
    {}, {}, {}, {}, {},
    {}, {}, {}, {}, {},
    {}, {}, {}, {}, {},
    {}, {}, {}, {}, {},
    {}, {}, {}, {}, {},
    {}, {}, {}, {}, {},
    {}, {}, {}, {}, {},
    {}, {}, {}, {}, {},
    {}, {}, {}, {}, {},
    {}, {}, {}, {}, {},
    {}, {}, {}, {}, {},
    {}, {}, {}, {}, {},
    {}, {}, {}, {}, {},
    {}, {}, {}, {}, {},
    {}, {}, {}, {}, {},
    {}, {}, {}, {}, {},
    {}, {}, {}, {}, {},
    {}, {}, {}, {}, {},
    {}, {}, {}, {}, {},
    {}, {}, {}, {}, {},
    {}, {}, {}, {}, {},
    {}, {}, {}, {}, {},
    {}, {}, {}, {}, {},
    {}, {}, {}, {}, {},
    {}, {}, {}, {}, {},
    {}, {}, {}, {}, {},
    {}, {}, {}, {}, {},
    {}, {}, {}, {}, {},
    {}, {}, {}, {}, {},
    {}, {}, {}, {}, {},
    {}, {}, {}, {}, {},
    {}, {}, {}, {}, {},
    {}, {}, {}, {}, {},
    {}, {}, {}, {}, {},
    {}, {}, {}, {}, {},
    {}, {}, {}, {}, {},
    {}, {}, {}, {}, {},
    {}, {}, {}, {}, {},
    {}, {}, {}, {}, {},
    {}, {}, {}, {}, {},
    {}, {}, {}, {}, {},
    {}, {}, {}, {}, {},
    {}, {}, {}, {}, {},
    {}, {}, {}, {}, {},
    {}, {}, {}, {}, {},
    {}, {}, {}, {}, {},
    {}, {}, {}, {}, {},
    {}, {}, {}, {}, {},
    {}, {}, {}, {}, {},
    {}, {}, {}, {}, {},
    {}, {}, {}, {}, {},
    {}, {}, {}, {}, {},
    {}, {}, {}, {}, {},
    {}, {}, {}, {}, {},
    {}, {}, {}, {}, {},
    {}, {}, {}, {}, {},
    {}, {}, {}, {}, {},
    {}, {}, {}, {}, {},
    {}, {}, {}, {}, {},
    {}, {}, {}, {}, {},
    {}, {}, {}, {}, {},
    {}, {}, {}, {}, {},
    {}, {}, {}, {}, {},
    {}, {}, {}, {}, {},
    {}, {}, {}, {}, {},
    {}, {}, {}, {}, {},
    {}, {}, {}, {}, {},
    {}, {}, {}, {}, {},
    {}, {}, {}, {}, {},
    {}, {}, {}, {}, {},
    {}, {}, {}, {}, {},
    {}, {}, {}, {}, {},
    {}, {}, {}, {}, {},
    {}, {}, {}, {}, {},
    {}, {}, {}, {}, {},
    {}, {}, {}, {}, {},
    {}, {}, {}, {}, {},
    {}, {}, {}, {}, {},
    {}, {}, {}, {}, {},
    {}, {}, {}, {}, {},
    {}, {}, {}, {}, {},
    {}, {}, {}, {}, {},
    {}, {}, {}, {}, {},
    {}, {}, {}, {}, {},
    {}, {}, {}, {}, {},
    {}, {}, {}, {}, {},
    {}, {}, {}, {}, {},
    {}, {}, {}, {}, {},
    {}, {}, {}, {}, {},
    {}, {}, {}, {}, {},
    {}, {}, {}, {}, {},
    {}, {}, {}, {}, {},
    {}, {}, {}, {}, {},
    {}, {}, {}, {}, {},
    {}, {}, {}, {}, {},
    {}, {}, {}, {}, {},
    {}, {}, {}, {}, {},
    {}, {}, {}, {}, {},
    {}, {}, {}, {}, {},
    {}, {}, {}, {}, {},
    {}, {}, {}, {}, {},
    {}, {}, {}, {}, {},
    {}, {}, {}, {}, {},
    {}, {}, {}, {}, {},
    {}, {}, {}, {}, {},
    {}, {}, {}, {}, {},
    {}, {}, {}, {}, {},
    {}, {}, {}, {}, {},
    {}, {}, {}, {}, {},
    {}, {}, {}, {}, {},
    {}, {}, {}, {}, {},
    {}, {}, {}, {}, {},
    {}, {}, {}, {}, {},
    {}, {}, {}, {}, {},
    {}, {}, {}, {}, {},
    {}, {}, {}, {}, {},
    {}, {}, {}, {}, {},
    {}, {}, {}, {}, {},
    {}, {}, {}, {}, {},
    {}, {}, {}, {}, {},
    {}, {}, {}, {}, {},
    {}, {}, {}, {}, {},
    {}, {}, {}, {}, {},
    {}, {}, {}, {}, {},
    {}, {}, {}, {}, {},

  % k = 4
    {}, {}, {}, {}, {},
    {}, {}, {}, {}, {},
    {}, {}, {}, {}, {},
    {}, {}, {}, {}, {},
    {}, {}, {}, {}, {},
    {}, {}, {}, {}, {},
    {}, {}, {}, {}, {},
    {}, {}, {}, {}, {},
    {}, {}, {}, {}, {},
    {}, {}, {}, {}, {},
    {}, {}, {}, {}, {},
    {}, {}, {}, {}, {},
    {}, {}, {}, {}, {},
    {}, {}, {}, {}, {},
    {}, {}, {}, {}, {},
    {}, {}, {}, {}, {},
    {}, {}, {}, {}, {},
    {}, {}, {}, {}, {},
    {}, {}, {}, {}, {},
    {}, {}, {}, {}, {},
    {}, {}, {}, {}, {},
    {}, {}, {}, {}, {},
    {}, {}, {}, {}, {},
    {}, {}, {}, {}, {},
    {}, {}, {}, {}, {},
    {}, {}, {}, {}, {},
    {}, {}, {}, {}, {},
    {}, {}, {}, {}, {},
    {}, {}, {}, {}, {},
    {}, {}, {}, {}, {},
    {}, {}, {}, {}, {},
    {}, {}, {}, {}, {},
    {}, {}, {}, {}, {},
    {}, {}, {}, {}, {},
    {}, {}, {}, {}, {},
    {}, {}, {}, {}, {},
    {}, {}, {}, {}, {},
    {}, {}, {}, {}, {},
    {}, {}, {}, {}, {},
    {}, {}, {}, {}, {},
    {}, {}, {}, {}, {},
    {}, {}, {}, {}, {},
    {}, {}, {}, {}, {},
    {}, {}, {}, {}, {},
    {}, {}, {}, {}, {},
    {}, {}, {}, {}, {},
    {}, {}, {}, {}, {},
    {}, {}, {}, {}, {},
    {}, {}, {}, {}, {},
    {}, {}, {}, {}, {},
    {}, {}, {}, {}, {},
    {}, {}, {}, {}, {},
    {}, {}, {}, {}, {},
    {}, {}, {}, {}, {},
    {}, {}, {}, {}, {},
    {}, {}, {}, {}, {},
    {}, {}, {}, {}, {},
    {}, {}, {}, {}, {},
    {}, {}, {}, {}, {},
    {}, {}, {}, {}, {},
    {}, {}, {}, {}, {},
    {}, {}, {}, {}, {},
    {}, {}, {}, {}, {},
    {}, {}, {}, {}, {},
    {}, {}, {}, {}, {},
    {}, {}, {}, {}, {},
    {}, {}, {}, {}, {},
    {}, {}, {}, {}, {},
    {}, {}, {}, {}, {},
    {}, {}, {}, {}, {},
    {}, {}, {}, {}, {},
    {}, {}, {}, {}, {},
    {}, {}, {}, {}, {},
    {}, {}, {}, {}, {},
    {}, {}, {}, {}, {},
    {}, {}, {}, {}, {},
    {}, {}, {}, {}, {},
    {}, {}, {}, {}, {},
    {}, {}, {}, {}, {},
    {}, {}, {}, {}, {},
    {}, {}, {}, {}, {},
    {}, {}, {}, {}, {},
    {}, {}, {}, {}, {},
    {}, {}, {}, {}, {},
    {}, {}, {}, {}, {},
    {}, {}, {}, {}, {},
    {}, {}, {}, {}, {},
    {}, {}, {}, {}, {},
    {}, {}, {}, {}, {},
    {}, {}, {}, {}, {},
    {}, {}, {}, {}, {},
    {}, {}, {}, {}, {},
    {}, {}, {}, {}, {},
    {}, {}, {}, {}, {},
    {}, {}, {}, {}, {},
    {}, {}, {}, {}, {},
    {}, {}, {}, {}, {},
    {}, {}, {}, {}, {},
    {}, {}, {}, {}, {},
    {}, {}, {}, {}, {},
    {}, {}, {}, {}, {},
    {}, {}, {}, {}, {},
    {}, {}, {}, {}, {},
    {}, {}, {}, {}, {},
    {}, {}, {}, {}, {},
    {}, {}, {}, {}, {},
    {}, {}, {}, {}, {},
    {}, {}, {}, {}, {},
    {}, {}, {}, {}, {},
    {}, {}, {}, {}, {},
    {}, {}, {}, {}, {},
    {}, {}, {}, {}, {},
    {}, {}, {}, {}, {},
    {}, {}, {}, {}, {},
    {}, {}, {}, {}, {},
    {}, {}, {}, {}, {},
    {}, {}, {}, {}, {},
    {}, {}, {}, {}, {},
    {}, {}, {}, {}, {},
    {}, {}, {}, {}, {},
    {}, {}, {}, {}, {},
    {}, {}, {}, {}, {},
    {}, {}, {}, {}, {},
    {}, {}, {}, {}, {},
    {}, {}, {}, {}, {},
    {}, {}, {}, {}, {},
    {}, {}, {}, {}, {},
    {}, {}, {}, {}, {},
    {}, {}, {}, {}, {},
    {}, {}, {}, {}, {},
    {}, {}, {}, {}, {},
    {}, {}, {}, {}, {},
    {}, {}, {}, {}, {},
    {}, {}, {}, {}, {},
    {}, {}, {}, {}, {},
    {}, {}, {}, {}, {},
    {}, {}, {}, {}, {},
    {}, {}, {}, {}, {},
    {}, {}, {}, {}, {},
    {}, {}, {}, {}, {},
    {}, {}, {}, {}, {}
]);
